1 -1 -2 0
1 -3 -4 0
1 -3 2 0
1 5 6 0
1 -5 -7 0
1 5 8 0
1 9 10 0
1 -9 11 0
1 -9 12 0
1 -9 -2 0
1 9 -7 0
1 2 13 0
1 2 -5 0
1 2 -1 0
1 2 8 0
1 -8 -14 0
1 8 -9 0
1 8 -15 0
1 -6 16 0
1 6 -17 0
1 6 9 0
1 -6 -18 0
1 6 -19 0
1 -20 14 0
1 -20 -9 0
1 -20 19 0
1 15 10 0
1 15 11 0
1 -15 8 0
1 -21 10 0
1 21 17 0
1 -21 2 0
1 21 -7 0
1 -21 -22 0
1 21 8 0
1 -23 2 0
1 23 -24 0
1 -23 -8 0
1 -25 26 0
1 25 -16 0
1 25 27 0
1 -25 -24 0
1 25 -28 0
1 -22 11 0
1 22 29 0
1 -11 -22 0
1 11 -15 0
1 7 10 0
1 7 -30 0
1 -7 -25 0
1 7 -21 0
1 7 9 0
1 7 -23 0
1 7 15 0
1 -10 14 0
1 10 21 0
1 10 -29 0
1 -10 -15 0
1 -10 5 0
1 -31 32 0
1 31 -11 0
1 31 24 0
1 -33 -34 0
1 -33 -11 0
1 33 -26 0
1 34 -30 0
1 34 -33 0
1 -34 -24 0
1 -28 -35 0
1 -28 -31 0
1 -28 -36 0
1 28 -37 0
1 -27 -34 0
1 27 -35 0
1 27 -28 0
1 -27 37 0
1 -24 -32 0
1 -24 -25 0
1 24 -26 0
1 24 -38 0
1 24 -37 0
1 24 -39 0
1 26 -40 0
1 26 37 0
1 -26 -39 0
1 -41 -42 0
1 -41 1 0
1 41 43 0
1 4 -44 0
1 -4 -45 0
1 4 46 0
1 4 -41 0
1 47 48 0
1 -47 -42 0
1 47 -46 0
1 -12 44 0
1 12 -49 0
1 44 50 0
1 -44 17 0
1 44 12 0
1 -44 -46 0
1 44 -19 0
1 44 47 0
1 46 -44 0
1 46 -17 0
1 46 19 0
1 46 -41 0
1 51 -52 0
1 -51 -53 0
1 51 47 0
1 42 51 0
1 42 -54 0
1 -42 -41 0
1 -19 -46 0
1 17 -20 0
1 18 16 0
1 18 55 0
1 -18 -56 0
1 -18 57 0
1 -16 -44 0
1 -16 58 0
1 -16 59 0
1 16 6 0
1 58 -60 0
1 -58 61 0
1 58 30 0
1 58 17 0
1 -61 -58 0
1 -61 -62 0
1 61 18 0
1 -61 -19 0
1 -61 -47 0
1 48 -60 0
1 48 -63 0
1 48 62 0
1 -48 49 0
1 -48 47 0
1 49 47 0
1 -64 -58 0
1 64 -59 0
1 64 2 0
1 64 -57 0
1 64 -20 0
1 -14 32 0
1 14 65 0
1 14 -6 0
1 14 64 0
1 66 -65 0
1 66 -13 0
1 -66 -61 0
1 -30 67 0
1 -30 68 0
1 -30 58 0
1 30 65 0
1 -30 -7 0
1 -30 66 0
1 -30 61 0
1 30 -57 0
1 -59 -30 0
1 -59 38 0
1 59 69 0
1 59 29 0
1 -59 -66 0
1 -59 -64 0
1 -59 39 0
1 -57 16 0
1 57 -29 0
1 57 18 0
1 -57 70 0
1 -65 -60 0
1 65 62 0
1 -65 -66 0
1 65 -18 0
1 -56 -16 0
1 29 59 0
1 -29 -71 0
1 -29 13 0
1 29 -72 0
1 -29 73 0
1 73 10 0
1 73 67 0
1 -73 -71 0
1 -73 29 0
1 73 -22 0
1 -73 24 0
1 -38 74 0
1 -38 26 0
1 38 -75 0
1 -38 -71 0
1 -38 -76 0
1 -38 24 0
1 -38 -57 0
1 38 39 0
1 39 -59 0
1 39 13 0
1 -39 77 0
1 13 -30 0
1 -13 35 0
1 -13 -2 0
1 67 -78 0
1 -67 30 0
1 67 -79 0
1 67 -29 0
1 -67 -80 0
1 67 -37 0
1 -71 -79 0
1 -71 -39 0
1 -72 -79 0
1 72 81 0
1 72 29 0
1 72 -66 0
1 -72 -20 0
1 -35 77 0
1 35 24 0
1 37 -24 0
1 37 28 0
1 82 -83 0
1 -82 84 0
1 -82 -13 0
1 82 76 0
1 -82 85 0
1 -82 -36 0
1 -83 13 0
1 -83 -77 0
1 77 86 0
1 -77 82 0
1 77 35 0
1 77 22 0
1 -77 87 0
1 77 83 0
1 -74 88 0
1 -74 -89 0
1 -74 -35 0
1 74 90 0
1 -74 37 0
1 -74 -39 0
1 76 -91 0
1 -76 92 0
1 76 -80 0
1 -76 37 0
1 91 -10 0
1 91 -93 0
1 91 79 0
1 91 38 0
1 -86 84 0
1 -86 85 0
1 87 -74 0
1 87 -40 0
1 87 -86 0
1 87 77 0
1 -87 85 0
1 94 74 0
1 -94 92 0
1 94 -95 0
1 -94 -77 0
1 95 94 0
1 -36 94 0
1 36 -86 0
1 36 95 0
1 36 -28 0
1 -84 96 0
1 84 83 0
1 -85 97 0
1 85 24 0
1 -40 88 0
1 40 -94 0
1 40 98 0
1 -40 83 0
1 -43 99 0
1 -43 -100 0
1 43 -45 0
1 43 101 0
1 43 41 0
1 -45 -102 0
1 103 -99 0
1 -103 -100 0
1 103 104 0
1 -103 102 0
1 -103 101 0
1 103 105 0
1 106 -100 0
1 101 100 0
1 -101 45 0
1 101 103 0
1 -101 43 0
1 -100 101 0
1 100 106 0
1 -100 -45 0
1 102 99 0
1 -102 106 0
1 -102 103 0
1 99 45 0
1 99 -103 0
1 53 51 0
1 -53 42 0
1 53 19 0
1 -107 51 0
1 107 101 0
1 107 -53 0
1 107 108 0
1 -55 -100 0
1 55 -104 0
1 -55 -109 0
1 55 -42 0
1 55 -105 0
1 -55 108 0
1 -110 -42 0
1 -110 -111 0
1 108 112 0
1 -108 -106 0
1 108 -104 0
1 -108 113 0
1 108 -114 0
1 -108 -55 0
1 108 -53 0
1 -104 115 0
1 -104 110 0
1 104 55 0
1 -105 -112 0
1 105 110 0
1 105 -107 0
1 -105 116 0
1 105 -106 0
1 105 113 0
1 105 -103 0
1 116 -105 0
1 54 51 0
1 -54 -115 0
1 54 104 0
1 54 117 0
1 54 -109 0
1 54 64 0
1 -54 108 0
1 -115 -118 0
1 115 -49 0
1 -114 -50 0
1 114 104 0
1 -114 117 0
1 114 -109 0
1 68 52 0
1 118 -60 0
1 -118 68 0
1 118 -62 0
1 -118 55 0
1 -109 119 0
1 -111 120 0
1 111 114 0
1 -111 -55 0
1 117 -112 0
1 -117 -54 0
1 -117 55 0
1 62 -121 0
1 -62 -56 0
1 60 112 0
1 -60 -122 0
1 60 49 0
1 -60 61 0
1 -75 118 0
1 -75 -63 0
1 -75 109 0
1 -75 122 0
1 -75 56 0
1 119 -109 0
1 -119 -123 0
1 119 56 0
1 -119 39 0
1 50 81 0
1 -50 -124 0
1 -121 -60 0
1 121 -81 0
1 121 -46 0
1 52 60 0
1 52 -51 0
1 122 60 0
1 122 -62 0
1 124 -125 0
1 124 -35 0
1 -124 126 0
1 -124 121 0
1 124 -123 0
1 -124 -57 0
1 70 -125 0
1 70 65 0
1 -70 -71 0
1 -70 -56 0
1 70 37 0
1 70 -127 0
1 -81 -50 0
1 81 -125 0
1 81 -128 0
1 81 -121 0
1 81 -129 0
1 -129 69 0
1 129 -71 0
1 129 -121 0
1 -129 -130 0
1 125 -131 0
1 -125 -58 0
1 125 132 0
1 -125 133 0
1 -125 129 0
1 134 -131 0
1 -134 -79 0
1 -134 125 0
1 134 133 0
1 134 80 0
1 134 70 0
1 -63 -48 0
1 63 135 0
1 63 -136 0
1 -63 81 0
1 -63 -137 0
1 63 129 0
1 -63 70 0
1 -123 135 0
1 -123 -124 0
1 -123 -75 0
1 123 129 0
1 80 69 0
1 92 91 0
1 -92 -94 0
1 92 138 0
1 92 76 0
1 -92 -133 0
1 -133 92 0
1 -133 -125 0
1 -133 -139 0
1 133 76 0
1 -133 130 0
1 -69 140 0
1 -69 -141 0
1 69 92 0
1 130 -80 0
1 130 57 0
1 -139 92 0
1 139 142 0
1 -139 -143 0
1 139 133 0
1 -139 80 0
1 -139 129 0
1 -144 -145 0
1 -144 -81 0
1 -144 142 0
1 88 -40 0
1 -88 138 0
1 -88 -90 0
1 -88 -76 0
1 88 -77 0
1 88 -146 0
1 90 -78 0
1 -90 -69 0
1 90 76 0
1 90 -130 0
1 141 89 0
1 -141 138 0
1 141 -147 0
1 -141 -146 0
1 98 78 0
1 -98 -69 0
1 -98 138 0
1 98 -148 0
1 149 78 0
1 -149 -88 0
1 149 -92 0
1 -149 150 0
1 -149 151 0
1 -78 -97 0
1 -78 141 0
1 -78 -88 0
1 -78 -150 0
1 78 98 0
1 78 90 0
1 138 -152 0
1 -138 -142 0
1 138 153 0
1 -146 -92 0
1 -146 -98 0
1 146 138 0
1 146 -133 0
1 146 72 0
1 97 -140 0
1 97 78 0
1 97 89 0
1 -97 84 0
1 97 -85 0
1 -150 -40 0
1 150 149 0
1 -151 93 0
1 151 -154 0
1 -151 -149 0
1 151 -148 0
1 151 -155 0
1 -151 156 0
1 154 -78 0
1 -154 157 0
1 154 -149 0
1 -154 -155 0
1 -147 -98 0
1 -89 158 0
1 -89 -159 0
1 -148 -97 0
1 148 93 0
1 -148 -160 0
1 -148 154 0
1 148 -150 0
1 -148 -161 0
1 -148 -162 0
1 -93 -141 0
1 -93 -161 0
1 -159 -96 0
1 158 96 0
1 158 163 0
1 -164 -155 0
1 -165 -147 0
1 -165 155 0
1 -156 -164 0
1 -156 -151 0
1 96 154 0
1 96 164 0
1 -96 -159 0
1 96 151 0
1 155 -165 0
1 155 154 0
1 -157 165 0
1 -157 164 0
1 157 151 0
1 -113 -112 0
1 113 -166 0
1 -113 104 0
1 -113 62 0
1 113 167 0
1 -112 -60 0
1 112 -113 0
1 112 167 0
1 112 108 0
1 120 117 0
1 -168 -169 0
1 -168 -166 0
1 168 -170 0
1 -168 167 0
1 -168 -119 0
1 -167 -113 0
1 -166 100 0
1 166 -128 0
1 166 -167 0
1 171 -112 0
1 171 -172 0
1 -169 -112 0
1 169 -173 0
1 169 120 0
1 -169 -113 0
1 -169 171 0
1 -169 168 0
1 -126 52 0
1 126 174 0
1 -127 170 0
1 127 -126 0
1 127 167 0
1 127 175 0
1 -127 174 0
1 128 -122 0
1 -128 175 0
1 -128 176 0
1 -176 177 0
1 -176 178 0
1 -176 122 0
1 -176 -167 0
1 -176 175 0
1 174 -179 0
1 -174 120 0
1 -174 -137 0
1 174 108 0
1 -177 -179 0
1 -177 -128 0
1 -177 126 0
1 177 -180 0
1 177 174 0
1 177 168 0
1 175 -181 0
1 -175 -128 0
1 -175 182 0
1 -170 181 0
1 170 -116 0
1 -170 183 0
1 170 126 0
1 -170 -176 0
1 -179 -50 0
1 179 -177 0
1 -179 -178 0
1 -179 -184 0
1 -179 -122 0
1 179 -123 0
1 -179 185 0
1 186 52 0
1 186 -63 0
1 186 179 0
1 -186 -123 0
1 135 187 0
1 135 92 0
1 135 188 0
1 -137 63 0
1 -137 135 0
1 137 -184 0
1 137 188 0
1 189 145 0
1 189 190 0
1 189 -131 0
1 189 128 0
1 189 -186 0
1 -189 -176 0
1 184 189 0
1 184 109 0
1 -184 191 0
1 184 192 0
1 184 137 0
1 -185 -193 0
1 185 -194 0
1 185 135 0
1 185 -128 0
1 -178 -181 0
1 131 189 0
1 -131 195 0
1 131 -125 0
1 -131 139 0
1 131 134 0
1 -131 -144 0
1 143 -189 0
1 143 -195 0
1 -143 -184 0
1 143 -90 0
1 -143 188 0
1 -143 123 0
1 -145 136 0
1 145 139 0
1 -145 184 0
1 -145 -191 0
1 -145 -196 0
1 145 197 0
1 191 -132 0
1 -191 139 0
1 191 197 0
1 -187 -145 0
1 -187 131 0
1 -187 50 0
1 187 198 0
1 -187 152 0
1 187 -142 0
1 -187 196 0
1 196 -140 0
1 -196 -135 0
1 -196 191 0
1 -196 -143 0
1 195 199 0
1 -195 -52 0
1 195 198 0
1 -195 -188 0
1 -188 193 0
1 188 145 0
1 188 131 0
1 -188 137 0
1 140 97 0
1 -140 -132 0
1 -140 142 0
1 142 132 0
1 142 -69 0
1 -142 -138 0
1 142 -197 0
1 -153 197 0
1 153 146 0
1 152 -200 0
1 152 -201 0
1 -152 -138 0
1 -152 202 0
1 152 203 0
1 -132 163 0
1 -132 -152 0
1 132 -191 0
1 197 140 0
1 -197 -191 0
1 -197 134 0
1 -197 -153 0
1 -136 -191 0
1 136 204 0
1 -204 -140 0
1 -204 145 0
1 204 198 0
1 -204 142 0
1 -204 -123 0
1 162 78 0
1 -162 93 0
1 162 200 0
1 162 -205 0
1 -162 197 0
1 -162 -203 0
1 163 132 0
1 -163 -149 0
1 163 203 0
1 -163 202 0
1 -163 -162 0
1 -161 -93 0
1 161 132 0
1 161 -200 0
1 -161 -148 0
1 -161 197 0
1 161 202 0
1 160 200 0
1 -160 202 0
1 -160 203 0
1 205 -160 0
1 205 69 0
1 -205 161 0
1 -205 162 0
1 -205 153 0
1 -203 152 0
1 203 153 0
1 202 -152 0
1 202 162 0
1 -181 -178 0
1 -181 206 0
1 181 -175 0
1 180 -181 0
1 -180 -178 0
1 194 178 0
1 -194 -207 0
1 194 172 0
1 194 -208 0
1 194 185 0
1 207 182 0
1 207 185 0
1 -206 199 0
1 206 -194 0
1 206 -209 0
1 -206 -201 0
1 -206 -207 0
1 -206 167 0
1 209 199 0
1 209 201 0
1 -172 181 0
1 -172 -180 0
1 173 181 0
1 173 169 0
1 193 183 0
1 193 210 0
1 -193 178 0
1 193 208 0
1 -211 195 0
1 211 210 0
1 211 206 0
1 -199 -209 0
1 -199 -192 0
1 199 182 0
1 -199 -208 0
1 -199 153 0
1 -201 183 0
1 -201 212 0
1 201 192 0
1 -201 -188 0
1 201 206 0
1 201 -182 0
1 208 210 0
1 208 207 0
1 208 174 0
1 210 193 0
1 210 -177 0
1 182 -193 0
1 -182 194 0
1 -182 -201 0
1 -182 211 0
1 183 -193 0
1 183 -211 0
1 198 210 0
1 198 204 0
1 -213 -214 0
1 213 -136 0
1 213 -215 0
1 -213 210 0
1 215 214 0
1 215 160 0
1 215 208 0
1 -190 -189 0
1 190 213 0
1 -192 215 0
1 -212 -214 0
1 212 -198 0
